n = 35;
m = 69;
w = [7,5,3,9,1,4,10,1,9,1,9,5,7,6,9,1,2,1,1,5,7,4,4,6,8,7,6,6,2,9,8,2,10,8,4,3,6,10,5,1,8,8,5,6,4,7,7,6,6,8,9,3,7,2,5,4,1,9,10,8,9,1,7,10,1,1,5,10,2];
edges = array2d(1..m, 1..2, [1,6,1,14,1,23,1,24,2,12,2,13,2,22,2,35,3,13,3,35,4,12,4,16,4,20,4,21,4,24,4,31,4,33,5,12,6,7,6,29,6,31,7,16,7,18,7,21,7,25,7,27,7,30,7,33,8,12,8,20,8,26,9,16,9,30,10,31,10,33,11,27,12,15,12,33,13,15,14,15,14,21,14,30,14,33,15,18,15,21,15,25,16,21,16,31,16,34,16,35,17,19,18,26,18,30,19,22,19,30,19,31,19,32,21,24,22,27,22,28,23,26,24,27,24,32,24,33,26,33,27,35,28,31,28,33,32,33]);
